Route #1: 6 41 56 23 24 49 16 51
Route #2: 33 63 1 43 42 64 22
Route #3: 2 62 28 61 21
Route #4: 5 47 36 60 20 37 15 57
Route #5: 13 54 19 59 14 53
Route #6: 11 38 10 58
Route #7: 31 25 55 18 50 44 3
Route #8: 40 32 9 39 12
Route #9: 17 26 7 35 8 46 34
Route #10: 52 27 45 29 48 30
Route #11: 4
Cost 849